NAME : n80w140.001.689.tour
COMMENT : Length = 689
COMMENT : Found by LKH [Keld Helsgaun] Tue May  2 05:47:35 2017
TYPE : TOUR
DIMENSION : 81
TOUR_SECTION
1
6
39
57
54
18
52
61
55
62
28
51
20
7
5
25
35
34
10
71
31
15
46
70
4
72
14
73
50
37
65
69
79
9
58
49
30
13
59
43
33
21
67
26
53
60
80
16
45
22
27
36
42
56
2
8
47
77
17
11
29
75
76
63
48
32
74
66
64
38
19
40
44
78
24
41
68
3
12
81
23
-1
EOF
